0000000000000000
0111100000000000
0111100000000000
0111100000000000
0111100000000000
0111100000000000
0111100000000000
0111100000000000
0111100000000000
0111100000000000
0111100000000000
0111100000000000
0111100000000000
0111100000000000
0111100000000000
0111100000000000
